submitit INFO (2023-04-30 19:21:39,061) - Starting with JobEnvironment(job_id=27534, hostname=cpunode3, local_rank=2(5), node=0(1), global_rank=2(5))
submitit INFO (2023-04-30 19:21:39,061) - Loading pickle: /h/30/pashootan/Matrix-Mult-CP/src/../logs/2x2x2_6_Apr30_19:21:36/27534_submitted.pkl
 ! --------------------------------------------------- CP Optimizer 22.1.1.0 --
 ! Satisfiability problem - 72 variables, 64 constraints
 ! TimeLimit            = 7200
 ! Workers              = 8
 ! LogPeriod            = 10000000
 ! RandomSeed           = 3711
 ! Initial process time : 0.02s (0.02s extraction + 0.00s propagation)
 !  . Log search space  : 114.1 (before), 114.1 (after)
 !  . Memory usage      : 431.0 kB (before), 431.0 kB (after)
 ! Using parallel search with 8 workers.
 ! ----------------------------------------------------------------------------
 !               Branches  Non-fixed    W       Branch decision
                   10000k          5    7         0  = V1_3
                   10000k          6    3   F     0  = V1_1
                   10000k          6    8   F    -1 != V1_1
                   10000k          4    2         0  = W1_1
                   10000k          4    6         0 != V3_0
                   10000k          5    5         1  = V3_0
                   10000k          4    1   F     0 != V2_0
                   10000k          4    4        -1  = V3_3
                   20000k          5    3   F     0  = V1_1
                   20000k          7    8   F     0 != U5_0
                   20000k          5    7   F    -1  = W4_1
                   20000k          4    6         0  = U2_0
                   20000k          4    4   F     1 != U5_1
                   20000k          4    2   F     0  = V3_3
                   20000k          5    5         1 != W5_1
                   20000k          4    1   F    -1 != U5_0
                   30000k          8    3   F    -1 != U2_0
                   30000k          7    7   F     0  = V1_1
                   30000k          7    8        -1 != U0_0
                   30000k          4    6   F     1  = U2_3
 ! Time = 378.65s, Average fail depth = 14, Memory usage = 203.0 MB
 !               Branches  Non-fixed    W       Branch decision
                   30000k          4    1   F    -1 != W2_3
                   30000k          4    2   F    -1 != U3_3
                   30000k          5    4        -1  = W5_3
                   30000k          4    5         1 != U2_1
                   40000k          7    8   F    -1 != U4_3
                   40000k          7    3   F     0 != U1_1
                   40000k          6    7         0 != W1_1
                   40000k          4    6         0 != U2_0
                   40000k          4    1         0 != W1_2
                   40000k          4    4         0 != W3_0
                   40000k          4    2         0 != V0_1
                   40000k          4    5   F    -1 != U4_1
                   50000k          5    3   F     1  = W3_1
                   50000k          7    8   F    -1  = W0_3
                   50000k          6    7   F     1  = U5_3
                   50000k          4    6         1  = V4_0
                   50000k          4    2   F    -1  = V1_1
                   50000k          4    4   F     0  = V3_0
                   50000k          4    1   F     0 != V4_0
                   50000k          4    5        -1  = V4_1
 ! Time = 633.49s, Average fail depth = 14, Memory usage = 332.7 MB
 !               Branches  Non-fixed    W       Branch decision
                   60000k          9    3   F    -1  = U5_1
                   60000k          6    8   F     1  = V4_3
                   60000k          8    7   F    -1  = U1_1
                   60000k          4    6   F    -1  = V2_2
                   60000k          4    2         0 != U2_0
                   60000k          4    5   F     0  = U3_1
                   60000k          5    4         1 != V2_2
                   60000k          4    1   F     1 != U2_0
                   70000k          6    3   F     0 != V1_2
                   70000k          6    7         0  = V2_1
                   70000k          7    8   F     0  = U5_0
                   70000k          4    6   F     0  = U2_0
                   70000k          4    2        -1  = W5_0
                   70000k          4    1         0 != W4_2
                   70000k          5    4        -1  = W4_2
                   70000k          4    5   F     0  = V2_2
                   80000k          6    8         1 != U4_3
                   80000k          7    3         0 != V0_2
                   80000k          8    7         0 != V2_1
                   80000k          4    6        -1  = V3_1
 ! Time = 1003.31s, Average fail depth = 14, Memory usage = 522.6 MB
 !               Branches  Non-fixed    W       Branch decision
                   80000k          4    1         0  = V5_2
                   80000k          4    2         1  = V1_2
                   80000k          4    4        -1  = V5_3
                   80000k          4    5        -1  = W0_1
                   90000k          9    3   F     0 != V3_1
                   90000k          7    8   F    -1 != V0_2
                   90000k          6    7         1 != U4_0
                   90000k          4    6         1 != U0_3
                   90000k          4    1         1 != U3_2
                   90000k          4    2   F     1  = V1_0
                   90000k          4    5   F     0 != W0_0
                   90000k          6    4         0 != W3_2
                     100M          8    3   F     0 != W3_0
                     100M          7    8   F     0 != V5_1
                     100M          4    1   F    -1  = W2_2
                     100M          5    6   F     1  = V1_0
                     100M          7    7   F    -1 != U5_1
                     100M          4    2   F    -1  = V1_1
                     100M          4    5         1 != V0_1
                     100M          6    4        -1  = V4_0
 ! Time = 1282.56s, Average fail depth = 14, Memory usage = 636.1 MB
 !               Branches  Non-fixed    W       Branch decision
                     110M         11    3   F    -1  = V5_2
                     110M          6    8         1 != W2_1
                     110M          4    6         1  = W4_1
                     110M          7    7         0 != V1_1
                     110M          5    2        -1 != U5_3
                     110M          4    1   F     0  = U4_2
                     110M          4    5         1  = V2_2
                     110M          7    4         0 != W0_0
                     120M          5    8         1 != U5_3
                     120M          7    3         1  = U5_3
                     120M          7    7   F    -1 != W2_1
                     120M          5    6   F     1 != W0_0
                     120M          6    2   F    -1 != V5_0
                     120M          4    5   F     0 != V2_2
                     120M          8    1        -1 != U3_3
                     120M          5    4         0 != W1_1
                     130M          6    8        -1 != V2_2
                     130M          7    3   F     1  = U2_2
                     130M          7    7   F     0 != U4_0
                     130M          7    6   F     0 != U0_0
 ! Time = 1652.13s, Average fail depth = 15, Memory usage = 713.7 MB
 !               Branches  Non-fixed    W       Branch decision
                     130M          4    5   F     1  = U4_1
                     130M          8    2   F    -1  = U3_0
                     130M          8    1         1  = V0_2
                     130M          5    4   F    -1  = U3_2
                     140M          8    3         0  = W4_1
                     140M          6    8        -1  = W3_0
                     140M          7    7         0 != V5_2
                     140M          7    1        -1 != U3_1
                     140M          6    2        -1 != V2_1
                     140M          9    6         0 != U1_3
                     140M          6    5   F     0 != U1_2
                     140M          4    4         1 != V5_1
                     150M          6    8        -1  = W0_0
                     150M          6    3         1 != U5_1
                     150M          6    7        -1 != U2_0
                     150M          6    1   F     0 != U4_0
                     150M          6    2        -1 != U1_3
                     150M          7    5         0 != V1_0
                     150M         11    6   F     1 != W5_0
                     150M          5    4   F    -1  = V4_2
 ! Time = 1935.54s, Average fail depth = 15, Memory usage = 731.5 MB
 !               Branches  Non-fixed    W       Branch decision
                     160M          6    8        -1  = U3_1
                     160M          7    3   F     0 != W5_0
                     160M          7    7        -1  = V2_0
                     160M          4    1         0 != V4_3
                     160M          6    2         0  = V1_2
                     160M          4    4   F     0  = V3_1
                     160M          8    6   F    -1 != W1_2
                     160M          6    5   F    -1 != U5_1
                     170M          7    3   F     0  = W4_3
                     170M          6    8   F    -1  = W3_3
                     170M          5    7   F     0  = V1_1
                     170M          4    1   F    -1  = U4_2
                     170M          6    2   F    -1 != W2_2
                     170M          6    6   F     1  = W3_1
                     170M          5    4        -1 != U4_2
                     170M         10    5   F    -1 != V1_2
                     180M          8    3        -1  = U1_3
                     180M          6    8   F     1  = U2_1
                     180M          7    7   F     1 != W4_1
                     180M          4    1        -1  = U2_1
 ! Time = 2304.88s, Average fail depth = 16, Memory usage = 805.8 MB
 !               Branches  Non-fixed    W       Branch decision
                     180M          6    6         1  = W2_3
                     180M          4    4   F    -1 != U2_1
                     180M          5    2        -1  = V5_2
                     180M          4    5   F     1 != V0_0
                     190M          6    3         1 != U5_0
                     190M          6    8   F    -1  = U0_3
                     190M          8    7   F    -1 != W1_1
                     190M          4    1   F     0 != V1_2
                     190M          4    2   F    -1  = U0_2
                     190M          5    4   F    -1 != W3_2
                     190M          5    6   F     1 != V1_1
                     190M          4    5         1 != V5_3
                     200M          6    8        -1  = U1_2
                     200M          5    7   F     1 != U0_3
                     200M          7    3   F    -1 != U1_1
                     200M          4    1         0 != W0_1
                     200M          5    2         0 != V3_1
                     200M          5    6        -1 != U2_3
                     200M          4    5   F     0  = W5_1
                     200M          4    4         1 != U2_2
 ! Time = 2591.81s, Average fail depth = 16, Memory usage = 904.9 MB
 !               Branches  Non-fixed    W       Branch decision
                     210M          6    8   F     0  = V0_3
                     210M         12    3   F    -1 != W1_0
                     210M          6    7         1 != U5_2
                     210M          4    1         1 != W0_1
                     210M          5    2         0 != U3_2
                     210M          5    6         0 != U3_1
                     210M          4    4   F     1 != W5_1
                     210M          4    5   F     0 != U4_1
                     220M         10    3   F    -1  = V4_3
                     220M          6    8   F     0 != W0_0
                     220M          7    7   F     0  = V1_3
                     220M          4    1         1 != V2_3
                     220M          5    2        -1  = V0_3
                     220M          4    6        -1  = U1_0
                     220M          4    5         1 != U2_2
                     220M          5    4         0 != U2_2
                     230M          7    3   F    -1 != U5_3
                     230M          6    8        -1 != V1_1
                     230M          6    7         0 != V5_1
                     230M          4    1         1 != U1_0
 ! Time = 2930.65s, Average fail depth = 16, Memory usage = 1.0 GB
 !               Branches  Non-fixed    W       Branch decision
                     230M          4    2         1 != U5_1
                     230M          4    4   F     1  = V1_0
                     230M          4    5   F     0 != V5_1
                     230M          5    6        -1 != V2_1
                     240M         10    3         0  = W5_2
                     240M          6    8        -1 != W1_0
                     240M          6    7   F     0  = U2_3
                     240M          4    1         0  = U2_3
                     240M          5    2   F     1 != W2_1
                     240M          4    5   F     0  = V1_0
                     240M          5    4   F     1 != U2_0
                     240M          4    6        -1  = W5_1
                     250M          9    3   F     1  = U5_0
                     250M          5    8   F     0  = U4_3
                     250M          7    7   F    -1 != V3_1
                     250M          4    1         1 != W2_2
                     250M          4    2   F     0  = U0_2
                     250M          4    5   F     0  = W0_2
                     250M          5    4   F    -1  = U3_3
                     260M          6    3         0 != V5_3
 ! Time = 3233.77s, Average fail depth = 16, Memory usage = 1.1 GB
 !               Branches  Non-fixed    W       Branch decision
                     250M          5    6         0 != V4_3
                     260M          8    7   F    -1 != W0_3
                     260M          6    8   F    -1 != U5_2
                     260M          4    1   F     0 != V3_0
                     260M          5    2   F     1 != U1_1
                     260M          4    5        -1  = V4_2
                     270M          6    3   F     0  = V4_1
                     260M          4    4   F     1 != V2_2
                     260M          6    6         1  = V2_0
                     270M         12    7   F     1  = U3_1
                     270M          6    8   F    -1  = U1_2
                     270M          4    1         1 != W2_0
                     270M          5    2         1 != W0_3
                     280M         10    3        -1 != U4_3
                     270M          4    5   F     1 != U5_2
                     270M          5    4   F     0  = V4_0
                     270M          6    6        -1 != W3_1
                     280M          7    7   F     0  = V2_2
                     280M          6    8         1 != W0_0
                     280M          6    1   F    -1  = U1_0
 ! Time = 3560.65s, Average fail depth = 16, Memory usage = 1.2 GB
 !               Branches  Non-fixed    W       Branch decision
                     290M         12    3   F     1  = V4_3
                     280M          5    2        -1  = V1_1
                     280M          4    5         1 != W5_1
                     280M          4    4   F     1 != V5_3
                     280M          4    6         0 != U2_3
                     290M          8    7        -1  = V1_0
                     290M          6    8        -1 != U4_0
                     290M          5    1   F    -1  = W2_1
                     290M          5    2   F     0 != W2_1
                     300M          8    3   F    -1 != W1_3
                     290M          4    5         1 != U2_1
                     290M          5    4         1 != W4_1
                     290M          4    6   F     0 != V1_1
                     300M         10    7        -1 != U3_2
                     300M          6    8   F    -1  = U1_3
                     300M          4    1        -1 != U3_3
                     300M          5    2        -1 != U5_2
                     310M         14    3        -1 != V1_2
                     300M          4    5   F     0  = V2_1
                     310M         12    7   F    -1  = W2_3
 ! Time = 3881.40s, Average fail depth = 16, Memory usage = 1.3 GB
 !               Branches  Non-fixed    W       Branch decision
                     300M          4    6   F     0 != W2_1
                     310M          5    8        -1 != W3_2
                     300M          5    4         1 != V1_0
                     310M          5    1   F     0  = W5_0
                     310M          5    2         0 != U3_1
                     320M          7    3        -1 != V4_3
                     310M          4    5         1 != U4_2
                     320M          5    7        -1  = V4_2
                     310M          4    6        -1 != V0_2
                     320M          5    8   F     0  = V5_0
                     310M          5    4   F    -1  = V1_0
                     320M          5    1         0 != W3_1
                     330M         12    3   F     1  = U3_3
                     330M         11    7        -1 != U0_0
                     320M          4    5   F    -1  = V1_1
                     320M          5    2   F     1 != U4_0
                     320M          4    6   F     1  = V2_1
                     330M          6    8   F        -
                     320M          5    4   F    -1 != V3_1
                     330M          5    1         0  = V1_1
 ! Time = 4195.02s, Average fail depth = 16, Memory usage = 1.4 GB
 !               Branches  Non-fixed    W       Branch decision
                     340M         12    3        -1  = V5_0
                     340M          6    7        -1 != U1_2
                     330M          4    5         0 != W3_0
                     330M          4    6         1  = W1_0
                     330M          5    2   F    -1 != U3_0
                     340M          5    8   F    -1  = U1_3
                     330M          5    4         0 != W5_2
                     340M          5    1        -1  = U3_3
                     350M          8    3         0 != V0_0
                     350M          9    7        -1 != U5_2
                     340M          4    6         1  = W1_2
                     340M          4    5        -1 != U5_0
                     340M          5    2   F     0  = V4_1
                     350M          7    8   F        -
                     340M          5    4         1 != V1_0
                     350M          5    1         1 != W2_2
                     360M          6    3         0 != V2_1
                     360M         11    7        -1 != V5_3
                     350M          5    6   F     1  = U0_2
                     350M          4    5         0  = W4_3
 ! Time = 4508.99s, Average fail depth = 16, Memory usage = 1.6 GB
 !               Branches  Non-fixed    W       Branch decision
                     350M          4    2   F     0  = W4_2
                     360M          7    8   F    -1 != U2_0
                     350M          5    4   F     0  = U1_1
                     360M          5    1   F    -1 != V1_1
                     370M         12    3         1  = W1_2
                     370M          7    7   F    -1  = W3_1
                     360M          5    6   F     0  = U3_2
                     360M          4    5        -1 != U3_3
                     360M          5    2         1 != W1_3
                     370M          6    8   F     1  = W0_0
                     360M          5    4   F     0 != U0_0
                     370M          5    1         0 != W5_1
                     380M         11    3   F    -1  = W2_3
                     380M          6    7   F    -1  = U2_0
                     370M          4    5   F     0  = U5_1
                     370M          5    6   F     1  = V3_0
                     380M          6    8   F    -1 != V3_0
                     370M          5    2   F    -1  = U5_0
                     370M          5    4         0  = U2_3
                     380M          5    1         0 != U4_3
 ! Time = 4841.11s, Average fail depth = 16, Memory usage = 1.7 GB
 !               Branches  Non-fixed    W       Branch decision
                     390M          5    7   F    -1  = W4_2
                     390M          7    3   F    -1 != W4_1
                     380M          4    5   F     0 != W2_3
                     380M          4    6   F     1  = U4_1
                     380M          5    2   F    -1 != V5_2
                     390M          7    8   F        -
                     380M          5    4   F     1  = V1_3
                     390M          5    1   F    -1 != V4_0
                     400M         10    7   F     1 != W2_0
                     400M          7    3        -1  = U2_3
                     390M          5    6   F     0 != V4_1
                     390M          4    5   F     0  = V3_0
                     390M          4    2   F    -1  = U3_1
                     400M          6    8        -1  = V1_1
                     390M          5    4        -1 != V2_1
                     400M          4    1         0 != U1_1
                     410M          9    7         0 != V0_0
                     410M          7    3        -1  = W4_3
                     400M          5    6   F     1  = W2_2
                     400M          5    2         1  = W5_3
 ! Time = 5156.99s, Average fail depth = 16, Memory usage = 1.8 GB
 !               Branches  Non-fixed    W       Branch decision
                     410M          6    8   F        -
                     400M          4    5   F     1  = V3_0
                     400M          5    4   F     0 != V2_0
                     410M          6    1         1  = U1_1
                     420M          9    7   F     1 != U1_0
                     420M         12    3   F    -1  = V2_1
                     410M          4    6   F    -1 != U0_0
                     420M          6    8         1 != U5_3
                     410M          4    5   F    -1  = U0_3
                     410M          5    2   F     1  = W4_3
                     410M          5    4         0 != V1_0
                     420M          6    1   F     0  = V0_0
                     430M          7    7         0 != V1_1
                     430M          8    3        -1  = W1_3
                     420M          4    6        -1 != V1_0
                     430M          6    8   F     1 != U0_3
                     420M          5    2   F     0 != W1_3
                     420M          4    5         0  = V1_3
                     420M          5    4   F     1 != U0_3
                     430M          5    1        -1  = W0_3
 ! Time = 5470.54s, Average fail depth = 16, Memory usage = 1.9 GB
 !               Branches  Non-fixed    W       Branch decision
                     440M          6    7         0 != W3_2
                     440M         11    3         1  = W1_1
                     430M          5    6   F    -1  = V3_0
                     440M          6    8            -
                     430M          5    2   F     1  = W0_3
                     430M          4    5   F     0  = V5_3
                     430M          5    4        -1  = V1_0
                     440M          4    1         0 != W5_2
                     450M          6    7        -1 != W0_2
                     450M          9    3         1  = U3_0
                     440M          6    6   F     1  = V3_0
                     440M          4    5   F     0  = V1_3
                     450M          6    8   F    -1 != W0_2
                     440M          5    2   F     1  = W3_2
                     440M          5    4   F     1 != W2_2
                     450M          4    1         1 != U1_3
                     460M          6    7         1  = V3_2
                     460M          9    3         1 != W3_2
                     450M          6    6         1  = V3_3
                     460M          6    8         0  = U3_0
 ! Time = 5790.02s, Average fail depth = 16, Memory usage = 2.0 GB
 !               Branches  Non-fixed    W       Branch decision
                     450M          4    5   F     1  = U3_0
                     450M          4    2   F     0  = W2_1
                     450M          5    4         0 != W2_3
                     460M          4    1         1 != V3_0
                     470M          7    3         1  = U1_2
                     460M          5    6         0 != V0_2
                     470M         11    7   F    -1 != V5_0
                     460M          4    5        -1  = V3_3
                     470M          6    8        -1  = U2_0
                     460M          5    2   F    -1  = U0_2
                     470M          4    1         0 != V4_3
                     460M          5    4         1  = U3_1
                     480M          7    3        -1 != V2_1
                     470M          5    6   F     1  = W4_1
                     480M          6    8   F     0  = V0_3
                     470M          4    5   F     0  = V4_1
                     480M          8    7   F     1  = U4_0
                     470M          5    2   F     0 != V4_0
                     470M          5    4         1 != V1_0
                     480M          4    1   F    -1  = W5_1
 ! Time = 6086.18s, Average fail depth = 16, Memory usage = 2.1 GB
 !               Branches  Non-fixed    W       Branch decision
                     490M          7    3   F     0  = W1_0
                     480M          5    6         1 != V0_1
                     480M          4    5         0  = V2_0
                     490M          6    8   F    -1  = U1_2
                     490M         13    7   F    -1 != V3_3
                     480M          5    2   F    -1 != U4_1
                     490M          5    1   F     0 != V2_2
                     480M          5    4        -1 != V3_0
                     500M          7    3        -1  = V4_2
                     490M          5    6   F    -1 != W1_2
                     490M          4    5   F    -1  = V5_0
                     500M          6    8         0  = W1_3
                     500M          7    7         1  = W5_2
                     490M          5    2   F    -1 != W5_2
                     500M          5    1        -1 != W2_1
                     490M          5    4         0 != U3_2
                     510M         12    3   F     1  = W1_0
                     500M          5    6   F     1 != U3_1
                     510M          8    7   F    -1 != W2_2
                     500M          4    5   F     0  = W0_0
 ! Time = 6406.54s, Average fail depth = 16, Memory usage = 2.2 GB
 !               Branches  Non-fixed    W       Branch decision
                     510M          6    8   F        -
                     500M          5    2         0 != W1_2
                     510M          4    1   F    -1 != U3_3
                     500M          5    4        -1  = W5_1
                     510M          5    6   F     1  = W2_2
                     520M          7    3   F     1  = U3_1
                     520M         12    7   F    -1 != W3_1
                     510M          4    5         1  = W2_0
                     520M          6    8         0 != W4_3
                     510M          6    2   F    -1 != W0_3
                     520M          4    1   F     1  = U4_0
                     510M          5    4   F     1 != V2_1
                     520M          6    6         0 != W2_1
                     530M         12    7         1 != W1_0
                     530M          6    3   F    -1  = W1_2
                     520M          4    5   F    -1  = V2_0
                     530M          6    8   F        -
                     520M          5    2        -1  = V3_0
                     530M          4    1         1  = W2_1
                     520M          4    4   F     0  = U2_2
 ! Time = 6715.13s, Average fail depth = 16, Memory usage = 2.3 GB
 !               Branches  Non-fixed    W       Branch decision
                     530M          5    6         0  = V5_1
                     540M         11    7        -1  = W1_2
                     540M          6    8   F    -1  = W0_3
                     540M          6    3   F    -1  = U3_2
                     530M          4    5   F     1 != W4_3
                     530M          5    4   F     0  = V5_0
                     530M          5    2         1 != W1_0
                     540M          4    1         0 != W3_1
                     540M          6    6   F    -1  = V3_2
                     550M          7    7   F    -1 != W2_2
                     550M         11    3   F    -1 != V1_1
                     550M          6    8   F    -1 != V4_0
                     540M          4    5        -1  = V0_1
                     540M          5    4         0 != U1_2
                     550M          4    1   F    -1 != V0_1
                     540M          5    2         0  = V0_2
                     550M          6    6         0  = V2_0
                     560M          6    7   F    -1 != W1_2
                     560M          7    3   F     0  = W1_3
                     560M          6    8            -
 ! Time = 7044.43s, Average fail depth = 16, Memory usage = 2.4 GB
 !               Branches  Non-fixed    W       Branch decision
                     550M          4    5        -1 != V3_2
                     560M          4    1   F     0  = V2_3
                     550M          5    4         1 != U1_2
                     550M          4    2         1  = V4_2
                     560M          6    6   F    -1 != W0_2
submitit WARNING (2023-04-30 21:20:42,328) - Bypassing signal SIGCONT
submitit INFO (2023-04-30 21:20:42,330) - Job has timed out. Ran 119 minutes out of requested 121 minutes.
submitit WARNING (2023-04-30 21:20:42,330) - Caught signal SIGUSR2 on cpunode3: this job is timed-out.
submitit INFO (2023-04-30 21:20:42,330) - Not checkpointing nor requeuing since I am a slave (procid=2).
                     570M          9    3   F    -1 != V2_2
                     570M          6    8   F     0 != V1_3
                     570M         12    7         0  = W1_2
                     560M          4    5         1 != V5_2
 ! ----------------------------------------------------------------------------
 ! Search terminated by limit, no solution found.
 ! ----------------------------------------------------------------------------
 ! Number of branches     : 4531179073
 ! Number of fails        : 2215885755
 ! Total memory usage     : 2.6 GB (2.6 GB CP Optimizer + 0.0 GB Concert)
 ! Time spent in solve    : 7200.06s (7200.05s engine + 0.02s extraction)
 ! Search speed (br. / s) : 629326.1
 ! ----------------------------------------------------------------------------
Unknown
Saving stats to: /h/30/pashootan/Matrix-Mult-CP/logs/2x2x2_6_Apr30_19:21:36/27534_2_stats.csv
submitit INFO (2023-04-30 21:21:40,067) - Job completed successfully
